Crypto/instances/samples/hf_n23/hf_n23_cnf05.sol
c DPLL-like Solver for max-min SAT
f file hf_n23_cnf05.cnf
p cnf 23 101
s max  101 -2 -1 3 -4 -7 6 -5 -8 19 -11 9 -12 -10 -22 -21 -17 14 -16 -20 -15 -13 -23 -18
s min  83 -2 1 -3 -4 -7 6 -5 -8 -19 -11 9 -12 -10 22 -21 -17 -14 -16 -20 15 -13 23 18